c nIsolatedPIs 0
c maxPI 32
p cnf 158 379
c gate 33 -2 -18 0
-2 -33 0
-18 -33 0
2 18 33 0
c gate 34 1 17 0
1 -34 0
17 -34 0
-1 -17 34 0
c gate 35 -33 34 0
-33 -35 0
34 -35 0
33 -34 35 0
c gate 36 3 19 0
3 -36 0
19 -36 0
-3 -19 36 0
c gate 37 2 18 0
2 -37 0
18 -37 0
-2 -18 37 0
c gate 38 -36 -37 0
-36 -38 0
-37 -38 0
36 37 38 0
c gate 39 -35 38 0
-35 -39 0
38 -39 0
35 -38 39 0
c gate 40 -4 -20 0
-4 -40 0
-20 -40 0
4 20 40 0
c gate 41 -3 -19 0
-3 -41 0
-19 -41 0
3 19 41 0
c gate 42 -40 -41 0
-40 -42 0
-41 -42 0
40 41 42 0
c gate 43 -39 42 0
-39 -43 0
42 -43 0
39 -42 43 0
c gate 44 4 20 0
4 -44 0
20 -44 0
-4 -20 44 0
c gate 45 5 21 0
5 -45 0
21 -45 0
-5 -21 45 0
c gate 46 -44 -45 0
-44 -46 0
-45 -46 0
44 45 46 0
c gate 47 -43 46 0
-43 -47 0
46 -47 0
43 -46 47 0
c gate 48 -6 -22 0
-6 -48 0
-22 -48 0
6 22 48 0
c gate 49 -5 -21 0
-5 -49 0
-21 -49 0
5 21 49 0
c gate 50 -48 -49 0
-48 -50 0
-49 -50 0
48 49 50 0
c gate 51 -47 50 0
-47 -51 0
50 -51 0
47 -50 51 0
c gate 52 7 -23 0
7 -52 0
-23 -52 0
-7 23 52 0
c gate 53 -7 23 0
-7 -53 0
23 -53 0
7 -23 53 0
c gate 54 -52 -53 0
-52 -54 0
-53 -54 0
52 53 54 0
c gate 55 6 22 0
6 -55 0
22 -55 0
-6 -22 55 0
c gate 56 -54 -55 0
-54 -56 0
-55 -56 0
54 55 56 0
c gate 57 -51 56 0
-51 -57 0
56 -57 0
51 -56 57 0
c gate 58 11 27 0
11 -58 0
27 -58 0
-11 -27 58 0
c gate 59 -11 -27 0
-11 -59 0
-27 -59 0
11 27 59 0
c gate 60 -58 -59 0
-58 -60 0
-59 -60 0
58 59 60 0
c gate 61 -10 26 0
-10 -61 0
26 -61 0
10 -26 61 0
c gate 62 9 25 0
9 -62 0
25 -62 0
-9 -25 62 0
c gate 63 -9 -25 0
-9 -63 0
-25 -63 0
9 25 63 0
c gate 64 -62 -63 0
-62 -64 0
-63 -64 0
62 63 64 0
c gate 65 -2 18 0
-2 -65 0
18 -65 0
2 -18 65 0
c gate 66 -1 17 0
-1 -66 0
17 -66 0
1 -17 66 0
c gate 67 -65 -66 0
-65 -67 0
-66 -67 0
65 66 67 0
c gate 68 2 -18 0
2 -68 0
-18 -68 0
-2 18 68 0
c gate 69 3 -19 0
3 -69 0
-19 -69 0
-3 19 69 0
c gate 70 -68 -69 0
-68 -70 0
-69 -70 0
68 69 70 0
c gate 71 -67 70 0
-67 -71 0
70 -71 0
67 -70 71 0
c gate 72 -4 20 0
-4 -72 0
20 -72 0
4 -20 72 0
c gate 73 -3 19 0
-3 -73 0
19 -73 0
3 -19 73 0
c gate 74 -72 -73 0
-72 -74 0
-73 -74 0
72 73 74 0
c gate 75 -71 74 0
-71 -75 0
74 -75 0
71 -74 75 0
c gate 76 5 -21 0
5 -76 0
-21 -76 0
-5 21 76 0
c gate 77 4 -20 0
4 -77 0
-20 -77 0
-4 20 77 0
c gate 78 -76 -77 0
-76 -78 0
-77 -78 0
76 77 78 0
c gate 79 -75 78 0
-75 -79 0
78 -79 0
75 -78 79 0
c gate 80 -48 -55 0
-48 -80 0
-55 -80 0
48 55 80 0
c gate 81 -5 21 0
-5 -81 0
21 -81 0
5 -21 81 0
c gate 82 -80 -81 0
-80 -82 0
-81 -82 0
80 81 82 0
c gate 83 -79 82 0
-79 -83 0
82 -83 0
79 -82 83 0
c gate 84 6 -22 0
6 -84 0
-22 -84 0
-6 22 84 0
c gate 85 -52 -84 0
-52 -85 0
-84 -85 0
52 84 85 0
c gate 86 -83 85 0
-83 -86 0
85 -86 0
83 -85 86 0
c gate 87 8 24 0
8 -87 0
24 -87 0
-8 -24 87 0
c gate 88 -8 -24 0
-8 -88 0
-24 -88 0
8 24 88 0
c gate 89 -87 -88 0
-87 -89 0
-88 -89 0
87 88 89 0
c gate 90 -53 -89 0
-53 -90 0
-89 -90 0
53 89 90 0
c gate 91 -86 90 0
-86 -91 0
90 -91 0
86 -90 91 0
c gate 92 -64 91 0
-64 -92 0
91 -92 0
64 -91 92 0
c gate 93 10 -26 0
10 -93 0
-26 -93 0
-10 26 93 0
c gate 94 9 -25 0
9 -94 0
-25 -94 0
-9 25 94 0
c gate 95 8 -24 0
8 -95 0
-24 -95 0
-8 24 95 0
c gate 96 -64 95 0
-64 -96 0
95 -96 0
64 -95 96 0
c gate 97 -94 -96 0
-94 -97 0
-96 -97 0
94 96 97 0
c gate 98 -93 97 0
-93 -98 0
97 -98 0
93 -97 98 0
c gate 99 -92 98 0
-92 -99 0
98 -99 0
92 -98 99 0
c gate 100 -61 -99 0
-61 -100 0
-99 -100 0
61 99 100 0
c gate 101 -60 -100 0
-60 -101 0
-100 -101 0
60 100 101 0
c gate 102 10 26 0
10 -102 0
26 -102 0
-10 -26 102 0
c gate 103 -58 -102 0
-58 -103 0
-102 -103 0
58 102 103 0
c gate 104 -7 -23 0
-7 -104 0
-23 -104 0
7 23 104 0
c gate 105 -88 -104 0
-88 -105 0
-104 -105 0
88 104 105 0
c gate 106 -62 -87 0
-62 -106 0
-87 -106 0
62 87 106 0
c gate 107 -105 106 0
-105 -107 0
106 -107 0
105 -106 107 0
c gate 108 -10 -26 0
-10 -108 0
-26 -108 0
10 26 108 0
c gate 109 -63 -108 0
-63 -109 0
-108 -109 0
63 108 109 0
c gate 110 -107 109 0
-107 -110 0
109 -110 0
107 -109 110 0
c gate 111 103 -110 0
103 -111 0
-110 -111 0
-103 110 111 0
c gate 112 -12 -28 0
-12 -112 0
-28 -112 0
12 28 112 0
c gate 113 12 28 0
12 -113 0
28 -113 0
-12 -28 113 0
c gate 114 -112 -113 0
-112 -114 0
-113 -114 0
112 113 114 0
c gate 115 -59 114 0
-59 -115 0
114 -115 0
59 -114 115 0
c gate 116 -111 115 0
-111 -116 0
115 -116 0
111 -115 116 0
c gate 117 -62 89 0
-62 -117 0
89 -117 0
62 -89 117 0
c gate 118 57 117 0
57 -118 0
117 -118 0
-57 -117 118 0
c gate 119 110 -118 0
110 -119 0
-118 -119 0
-110 118 119 0
c gate 120 103 -119 0
103 -120 0
-119 -120 0
-103 119 120 0
c gate 121 115 -120 0
115 -121 0
-120 -121 0
-115 120 121 0
c gate 122 -16 -32 0
-16 -122 0
-32 -122 0
16 32 122 0
c gate 123 16 32 0
16 -123 0
32 -123 0
-16 -32 123 0
c gate 124 -122 -123 0
-122 -124 0
-123 -124 0
122 123 124 0
c gate 125 -13 -29 0
-13 -125 0
-29 -125 0
13 29 125 0
c gate 126 13 29 0
13 -126 0
29 -126 0
-13 -29 126 0
c gate 127 -125 -126 0
-125 -127 0
-126 -127 0
125 126 127 0
c gate 128 124 127 0
124 -128 0
127 -128 0
-124 -127 128 0
c gate 129 -14 -30 0
-14 -129 0
-30 -129 0
14 30 129 0
c gate 130 14 30 0
14 -130 0
30 -130 0
-14 -30 130 0
c gate 131 -129 -130 0
-129 -131 0
-130 -131 0
129 130 131 0
c gate 132 -15 -31 0
-15 -132 0
-31 -132 0
15 31 132 0
c gate 133 15 31 0
15 -133 0
31 -133 0
-15 -31 133 0
c gate 134 -132 -133 0
-132 -134 0
-133 -134 0
132 133 134 0
c gate 135 131 134 0
131 -135 0
134 -135 0
-131 -134 135 0
c gate 136 128 135 0
128 -136 0
135 -136 0
-128 -135 136 0
c gate 137 121 136 0
121 -137 0
136 -137 0
-121 -136 137 0
c gate 138 116 -137 0
116 -138 0
-137 -138 0
-116 137 138 0
c gate 139 -83 138 0
-83 -139 0
138 -139 0
83 -138 139 0
c gate 140 54 -89 0
54 -140 0
-89 -140 0
-54 89 140 0
c gate 141 83 -140 0
83 -141 0
-140 -141 0
-83 140 141 0
c gate 142 -139 -141 0
-139 -142 0
-141 -142 0
139 141 142 0
c gate 143 -91 142 0
-91 -143 0
142 -143 0
91 -142 143 0
c gate 144 -102 -108 0
-102 -144 0
-108 -144 0
102 108 144 0
c gate 145 97 144 0
97 -145 0
144 -145 0
-97 -144 145 0
c gate 146 92 -145 0
92 -146 0
-145 -146 0
-92 145 146 0
c gate 147 -143 -146 0
-143 -147 0
-146 -147 0
143 146 147 0
c gate 148 60 97 0
60 -148 0
97 -148 0
-60 -97 148 0
c gate 149 146 148 0
146 -149 0
148 -149 0
-146 -148 149 0
c gate 150 -147 -149 0
-147 -150 0
-149 -150 0
147 149 150 0
c gate 151 -101 -150 0
-101 -151 0
-150 -151 0
101 150 151 0
c gate 152 -114 -124 0
-114 -152 0
-124 -152 0
114 124 152 0
c gate 153 -127 -131 0
-127 -153 0
-131 -153 0
127 131 153 0
c gate 154 -134 153 0
-134 -154 0
153 -154 0
134 -153 154 0
c gate 155 152 154 0
152 -155 0
154 -155 0
-152 -154 155 0
c gate 156 101 155 0
101 -156 0
155 -156 0
-101 -155 156 0
c gate 157 -151 -156 0
-151 -157 0
-156 -157 0
151 156 157 0
c gate 158 57 -157 0
57 -158 0
-157 -158 0
-57 157 158 0
c PO
158 0
